seed= 2052018 ;
N= 10 ;
M= 2 ;
F= 2 ;
K= 4 ;
T= 72 ;

p=[ 20 20 20 20 20 10 10 10 10 10 ];
r=[ 6 1 7 1 1 2 9 2 5 8 ];
d=[ 19 2 11 7 4 13 26 14 11 14 ];
s=[ 1 1 1 1 1 1 1 1 1 1 ];
w=[ 2 1 3 5 1 5 2 3 4 1 ];
f=[ 1 1 1 1 1 2 2 2 2 2 ];

e1=[ 10 10 10 10 10 10 10 10 10 10 10 10 10 10 10 10 10 10 10 10 10 10 10 10 10 10 10 10 10 10 10 10 10 10 10 10 8 8 8 8 8 8 8 8 8 8 8 8 8 8 8 8 8 8 8 8 8 8 8 8 8 8 8 8 8 8 8 8 8 8 8 8 ];
e2=[ 10 10 10 10 10 10 10 10 10 10 10 10 10 10 10 10 10 10 10 10 10 10 10 10 9 9 9 9 9 9 9 9 9 9 9 9 8 8 8 8 8 8 8 8 8 8 8 8 8 8 8 8 8 8 8 8 8 8 8 8 9 9 9 9 9 9 9 9 9 9 9 9 ];